4 
5  49 
6  06 19 34 47 
7  00 15 30 45 
8  00 15 30 45 
9  00 15 30 45 
10  00 17 32 47 
11  02 17 32 47 
12  02 17 32 47 
13  02 17 32 47 
14  02 17 32 47 
15  02 17 32 47 
16  02 17 32 47 
17  02 17 32 47 
18  02 17 32 47 
19  02 17 32 47 
20  02 17 32 47 
21  02 17 32 47 
22  02 17 34 49 
23  04 15 28 
0 
